c Random generated cnf formula, satisfiable: false
p cnf 10 50
-7 8 -2 0
7 -4 -1 0
6 -10 -2 0
8 6 4 0
6 -3 -2 0
-10 -6 -2 0
-10 3 9 0
-7 5 10 0
-10 -4 5 0
-6 1 -4 0
-7 9 4 0
-7 -8 -6 0
-3 -4 7 0
5 -10 -7 0
-3 -8 -1 0
-8 -9 3 0
9 10 -1 0
2 -5 3 0
-4 -2 -8 0
-7 -2 8 0
-8 1 -4 0
-7 4 -6 0
-10 2 9 0
-8 5 7 0
-5 -1 -9 0
8 -1 6 0
2 -10 4 0
-4 10 9 0
-7 3 -8 0
-10 1 -7 0
-3 10 -2 0
5 6 -9 0
1 -6 -9 0
3 7 -6 0
-10 6 5 0
6 8 4 0
6 4 7 0
7 -4 -3 0
-5 7 10 0
6 -3 2 0
10 -6 4 0
-6 3 -5 0
-10 -5 2 0
7 8 -3 0
5 6 3 0
8 4 5 0
-1 2 -8 0
10 -9 1 0
6 9 10 0
5 -7 10 0
